data/solutions/recovery/wellformed/moderate/binding/wellformed_moderate_instance11/22.sol
Elapsed time: 0.01
Upper bound: 12777.0
Planning weighted value: 80598.0
C[0]=12777.0
C[1]=10841.0
C[2]=9854.0
y[0]=2
y[1]=1
y[2]=0
y[3]=1
y[4]=1
y[5]=0
y[6]=2
y[7]=2
y[8]=0
y[9]=1
y[10]=1
y[11]=0
y[12]=0
y[13]=2
y[14]=1
y[15]=2
y[16]=0
y[17]=1
y[18]=0
y[19]=1
y[20]=1
y[21]=0
y[22]=2
y[23]=0
y[24]=1
y[25]=2
y[26]=1
y[27]=0
y[28]=1
y[29]=1
y[30]=2
y[31]=2
y[32]=2
