data/solutions/recovery/wellformed/moderate/binding/wellformed_moderate_instance11/22.log

Log started (V12.6.3.0) Fri Apr 20 17:49:49 2018

New value for default parallel thread count: 1

Problem '/tmp/tmpiBLlYz.pyomo.lp' read.
Read time = 0.00 sec. (0.03 ticks)

Problem name         : /tmp/tmpiBLlYz.pyomo.lp
Objective sense      : Minimize
Variables            :     104  [Nneg: 1,  Binary: 99,  General Integer: 4]
Objective nonzeros   :       1
Linear constraints   :      73  [Less: 36,  Equal: 37]
  Nonzeros           :    2185
  RHS nonzeros       :      34

Variables            : Min LB: 0.000000         Max UB: 1.000000       
Objective nonzeros   : Min   : 1.000000         Max   : 1.000000       
Linear constraints   :
  Nonzeros           : Min   : 1.000000         Max   : 1950.000       
  RHS nonzeros       : Min   : 1.000000         Max   : 1.000000       
Tried aggregator 2 times.
MIP Presolve eliminated 70 rows and 101 columns.
MIP Presolve modified 4 coefficients.
Aggregator did 3 substitutions.
All rows and columns eliminated.
Presolve time = 0.00 sec. (0.20 ticks)

Root node processing (before b&c):
  Real time             =    0.00 sec. (0.26 ticks)
Sequential b&c:
  Real time             =    0.00 sec. (0.00 ticks)
                          ------------
Total (root+branch&cut) =    0.00 sec. (0.26 ticks)

Solution pool: 1 solution saved.

MIP - Integer optimal solution:  Objective =  1.2777000000e+04
Solution time =    0.00 sec.  Iterations = 0  Nodes = 0
Deterministic time = 0.26 ticks  (257.90 ticks/sec)


Incumbent solution written to file '/tmp/tmpiLM4JY.cplex.sol'.

Log started (V12.6.3.0) Fri Apr 20 17:52:53 2018

New value for default parallel thread count: 1

Problem '/tmp/tmpHBhwm0.pyomo.lp' read.
Read time = 0.00 sec. (0.03 ticks)

Problem name         : /tmp/tmpHBhwm0.pyomo.lp
Objective sense      : Minimize
Variables            :     104  [Nneg: 1,  Binary: 99,  General Integer: 4]
Objective nonzeros   :       1
Linear constraints   :      73  [Less: 36,  Equal: 37]
  Nonzeros           :    2185
  RHS nonzeros       :      34

Variables            : Min LB: 0.000000         Max UB: 1.000000       
Objective nonzeros   : Min   : 1.000000         Max   : 1.000000       
Linear constraints   :
  Nonzeros           : Min   : 1.000000         Max   : 1950.000       
  RHS nonzeros       : Min   : 1.000000         Max   : 1.000000       
Tried aggregator 2 times.
MIP Presolve eliminated 70 rows and 101 columns.
MIP Presolve modified 4 coefficients.
Aggregator did 3 substitutions.
All rows and columns eliminated.
Presolve time = 0.00 sec. (0.20 ticks)

Root node processing (before b&c):
  Real time             =    0.00 sec. (0.26 ticks)
Sequential b&c:
  Real time             =    0.00 sec. (0.00 ticks)
                          ------------
Total (root+branch&cut) =    0.00 sec. (0.26 ticks)

Solution pool: 1 solution saved.

MIP - Integer optimal solution:  Objective =  1.2777000000e+04
Solution time =    0.00 sec.  Iterations = 0  Nodes = 0
Deterministic time = 0.26 ticks  (257.90 ticks/sec)


Incumbent solution written to file '/tmp/tmpjpPeuk.cplex.sol'.
